instances/shortest_path/discrete_knapsack_uncertainty/nohadani_9_20.lp
\ Model nohadani_9_20
\ LP format - for model browsing. Use MPS format to capture full model detail.
\ Signature: 0x3d742310a829b0f1
Minimize
  27.29468812791236 y[0,2] + 63.7808748764079 y[0,3]
   + 51.24451190127583 y[0,4] + 68.18357573492314 y[0,5]
   + 71.84010022264724 y[0,6] + 29.5296461204668 y[0,8]
   + 38.01315561749642 y[1,3] + 74.33034373659252 y[1,4]
   + 81.05553651663777 y[1,5] + 32.28002478313795 y[1,6]
   + 9.055385138137417 y[1,7] + 27.29468812791236 y[2,0]
   + 63.60031446463138 y[2,3] + 28.16025568065745 y[2,4]
   + 86.03487664894976 y[2,5] + 72.12489168102785 y[2,6]
   + 85.80209787645055 y[2,7] + 40.16217125604641 y[2,8]
   + 63.7808748764079 y[3,0] + 38.01315561749642 y[3,1]
   + 63.60031446463138 y[3,2] + 53.75872022286245 y[3,4]
   + 51.07837115648854 y[3,5] + 8.54400374531753 y[3,6]
   + 33.95585369269929 y[3,7] + 92.80086206496145 y[3,8]
   + 51.24451190127583 y[4,0] + 74.33034373659252 y[4,1]
   + 28.16025568065745 y[4,2] + 53.75872022286245 y[4,3]
   + 92.00543462209176 y[4,5] + 61.29437168288782 y[4,6]
   + 65.55150646628954 y[4,7] + 68.30812543175226 y[4,8]
   + 68.18357573492314 y[5,0] + 81.05553651663777 y[5,1]
   + 86.03487664894976 y[5,2] + 51.07837115648854 y[5,3]
   + 92.00543462209176 y[5,4] + 51.41984052872976 y[5,6]
   + 80.89499366462674 y[5,7] + 71.84010022264724 y[6,0]
   + 32.28002478313795 y[6,1] + 72.12489168102785 y[6,2]
   + 8.54400374531753 y[6,3] + 61.29437168288782 y[6,4]
   + 51.41984052872976 y[6,5] + 30 y[6,7] + 9.055385138137417 y[7,1]
   + 85.80209787645055 y[7,2] + 33.95585369269929 y[7,3]
   + 65.55150646628954 y[7,4] + 80.89499366462674 y[7,5] + 30 y[7,6]
   + 29.5296461204668 y[8,0] + 40.16217125604641 y[8,2]
   + 92.80086206496145 y[8,3] + 68.30812543175226 y[8,4] + x[0,2] + x[0,3]
   + x[0,4] + x[0,5] + x[0,6] + x[0,8] + x[1,3] + x[1,4] + x[1,5] + x[1,6]
   + x[1,7] + x[2,0] + x[2,3] + x[2,4] + x[2,5] + x[2,6] + x[2,7] + x[2,8]
   + x[3,0] + x[3,1] + x[3,2] + x[3,4] + x[3,5] + x[3,6] + x[3,7] + x[3,8]
   + x[4,0] + x[4,1] + x[4,2] + x[4,3] + x[4,5] + x[4,6] + x[4,7] + x[4,8]
   + x[5,0] + x[5,1] + x[5,2] + x[5,3] + x[5,4] + x[5,6] + x[5,7] + x[6,0]
   + x[6,1] + x[6,2] + x[6,3] + x[6,4] + x[6,5] + x[6,7] + x[7,1] + x[7,2]
   + x[7,3] + x[7,4] + x[7,5] + x[7,6] + x[8,0] + x[8,2] + x[8,3] + x[8,4]
   + 2.729468812791236 r[0,2] + 6.378087487640791 r[0,3]
   + 5.124451190127584 r[0,4] + 6.818357573492314 r[0,5]
   + 7.184010022264724 r[0,6] + 2.95296461204668 r[0,8]
   + 3.801315561749643 r[1,3] + 7.433034373659253 r[1,4]
   + 8.105553651663778 r[1,5] + 3.228002478313795 r[1,6]
   + 0.9055385138137417 r[1,7] + 2.729468812791236 r[2,0]
   + 6.360031446463139 r[2,3] + 2.816025568065745 r[2,4]
   + 8.603487664894976 r[2,5] + 7.212489168102785 r[2,6]
   + 8.580209787645055 r[2,7] + 4.016217125604641 r[2,8]
   + 6.378087487640791 r[3,0] + 3.801315561749643 r[3,1]
   + 6.360031446463139 r[3,2] + 5.375872022286245 r[3,4]
   + 5.107837115648854 r[3,5] + 0.8544003745317531 r[3,6]
   + 3.395585369269929 r[3,7] + 9.280086206496145 r[3,8]
   + 5.124451190127584 r[4,0] + 7.433034373659253 r[4,1]
   + 2.816025568065745 r[4,2] + 5.375872022286245 r[4,3]
   + 9.200543462209176 r[4,5] + 6.129437168288782 r[4,6]
   + 6.555150646628954 r[4,7] + 6.830812543175226 r[4,8]
   + 6.818357573492314 r[5,0] + 8.105553651663778 r[5,1]
   + 8.603487664894976 r[5,2] + 5.107837115648854 r[5,3]
   + 9.200543462209176 r[5,4] + 5.141984052872977 r[5,6]
   + 8.089499366462674 r[5,7] + 7.184010022264724 r[6,0]
   + 3.228002478313795 r[6,1] + 7.212489168102785 r[6,2]
   + 0.8544003745317531 r[6,3] + 6.129437168288782 r[6,4]
   + 5.141984052872977 r[6,5] + 3 r[6,7] + 0.9055385138137417 r[7,1]
   + 8.580209787645055 r[7,2] + 3.395585369269929 r[7,3]
   + 6.555150646628954 r[7,4] + 8.089499366462674 r[7,5] + 3 r[7,6]
   + 2.95296461204668 r[8,0] + 4.016217125604641 r[8,2]
   + 9.280086206496145 r[8,3] + 6.830812543175226 r[8,4]
Subject To
 flow_cons_inner_nodes[0]: - y[0,2] - y[0,3] - y[0,4] - y[0,5] - y[0,6]
   - y[0,8] + y[2,0] + y[3,0] + y[4,0] + y[5,0] + y[6,0] + y[8,0] = 0
 flow_cons_inner_nodes[2]: y[0,2] - y[2,0] - y[2,3] - y[2,4] - y[2,5]
   - y[2,6] - y[2,7] - y[2,8] + y[3,2] + y[4,2] + y[5,2] + y[6,2] + y[7,2]
   + y[8,2] = 0
 flow_cons_inner_nodes[3]: y[0,3] + y[1,3] + y[2,3] - y[3,0] - y[3,1]
   - y[3,2] - y[3,4] - y[3,5] - y[3,6] - y[3,7] - y[3,8] + y[4,3] + y[5,3]
   + y[6,3] + y[7,3] + y[8,3] = 0
 flow_cons_inner_nodes[4]: y[0,4] + y[1,4] + y[2,4] + y[3,4] - y[4,0]
   - y[4,1] - y[4,2] - y[4,3] - y[4,5] - y[4,6] - y[4,7] - y[4,8] + y[5,4]
   + y[6,4] + y[7,4] + y[8,4] = 0
 flow_cons_inner_nodes[5]: y[0,5] + y[1,5] + y[2,5] + y[3,5] + y[4,5]
   - y[5,0] - y[5,1] - y[5,2] - y[5,3] - y[5,4] - y[5,6] - y[5,7] + y[6,5]
   + y[7,5] = 0
 flow_cons_inner_nodes[6]: y[0,6] + y[1,6] + y[2,6] + y[3,6] + y[4,6]
   + y[5,6] - y[6,0] - y[6,1] - y[6,2] - y[6,3] - y[6,4] - y[6,5] - y[6,7]
   + y[7,6] = 0
 flow_cons_inner_nodes[7]: y[1,7] + y[2,7] + y[3,7] + y[4,7] + y[5,7]
   + y[6,7] - y[7,1] - y[7,2] - y[7,3] - y[7,4] - y[7,5] - y[7,6] = 0
 flow_cons_source: y[1,3] + y[1,4] + y[1,5] + y[1,6] + y[1,7] - y[3,1]
   - y[4,1] - y[5,1] - y[6,1] - y[7,1] = 1
 flow_cons_target: y[0,8] + y[2,8] + y[3,8] + y[4,8] - y[8,0] - y[8,2]
   - y[8,3] - y[8,4] = 1
 primal_lower: 3.213280142152577 x[0,2] + 0.2724613147251731 x[0,3]
   + 3.044717290544681 x[0,4] + 3.967557865992806 x[0,5]
   + 4.602048238757212 x[0,6] + 2.868161843466926 x[0,8]
   + 3.796067757081443 x[1,3] + 2.378345841860604 x[1,4]
   + 2.862296928411075 x[1,5] + 0.6164269925670285 x[1,6]
   + 1.549307153893239 x[1,7] + 0.4192263448469313 x[2,0]
   + 2.39664358465076 x[2,3] + 0.7633805796760251 x[2,4]
   + 0.2537130636363433 x[2,5] + 2.232038624279012 x[2,6]
   + 0.0978226389090153 x[2,7] + 0.5160584085571429 x[2,8]
   + 1.476865124977139 x[3,0] + 0.9506323189272703 x[3,1]
   + 3.493617077306959 x[3,2] + 3.974547416541725 x[3,4]
   + 4.237203403704703 x[3,5] + 2.900421539774323 x[3,6]
   + 0.5851004474915239 x[3,7] + 3.564695860915182 x[3,8]
   + 4.988176750485356 x[4,0] + 3.867815647116676 x[4,1]
   + 3.645146856819864 x[4,2] + 4.951007483382466 x[4,3]
   + 1.38714553526446 x[4,5] + 0.4825138266824958 x[4,6]
   + 4.214391349124896 x[4,7] + 0.8605725947062781 x[4,8]
   + 4.435767596395661 x[5,0] + 4.017275460385295 x[5,1]
   + 3.819987859781771 x[5,2] + 4.67020792559903 x[5,3]
   + 3.823653205692681 x[5,4] + 0.3389463644865859 x[5,6]
   + 3.711285113205581 x[5,7] + 1.255217193065756 x[6,0]
   + 3.270375587636474 x[6,1] + 2.347492706057848 x[6,2]
   + 3.853277117794551 x[6,3] + 2.351563217578734 x[6,4]
   + 2.338199798045751 x[6,5] + 0.7758116382868208 x[6,7]
   + 3.891247593770503 x[7,1] + 4.022365671584938 x[7,2]
   + 1.561678306185872 x[7,3] + 2.130020984096787 x[7,4]
   + 3.797304287134232 x[7,5] + 4.025423598656276 x[7,6]
   + 4.681222470965237 x[8,0] + 2.703643414803694 x[8,2]
   + 0.0868755315162917 x[8,3] + 2.120238786467206 x[8,4] + 80 u[0,2]
   + 45 u[0,3] + 79 u[0,4] + 40 u[0,5] + 17 u[0,6] + 62 u[0,8] + 22 u[1,3]
   + 68 u[1,4] + 34 u[1,5] + 43 u[1,6] + 68 u[1,7] + 52 u[2,0] + 89 u[2,3]
   + 93 u[2,4] + 69 u[2,5] + 53 u[2,6] + 86 u[2,7] + 73 u[2,8] + 18 u[3,0]
   + 63 u[3,1] + 86 u[3,2] + 60 u[3,4] + 77 u[3,5] + 47 u[3,6] + 25 u[3,7]
   + 37 u[3,8] + 39 u[4,0] + 56 u[4,1] + 62 u[4,2] + 76 u[4,3] + 42 u[4,5]
   + 48 u[4,6] + 8 u[4,7] + 26 u[4,8] + 49 u[5,0] + 6 u[5,1] + 53 u[5,2]
   + 41 u[5,3] + 97 u[5,4] + 63 u[5,6] + 52 u[5,7] + 82 u[6,0] + 83 u[6,1]
   + 70 u[6,2] + 72 u[6,3] + 11 u[6,4] + 6 u[6,5] + 78 u[6,7] + 80 u[7,1]
   + 65 u[7,2] + 95 u[7,3] + 73 u[7,4] + 58 u[7,5] + 13 u[7,6] + 21 u[8,0]
   + 60 u[8,2] + 42 u[8,3] + 83 u[8,4] <= 290
 mccormick1[0,2]: - u[0,2] + r[0,2] <= 0
 mccormick1[0,3]: - u[0,3] + r[0,3] <= 0
 mccormick1[0,4]: - u[0,4] + r[0,4] <= 0
 mccormick1[0,5]: - u[0,5] + r[0,5] <= 0
 mccormick1[0,6]: - u[0,6] + r[0,6] <= 0
 mccormick1[0,8]: - u[0,8] + r[0,8] <= 0
 mccormick1[1,3]: - u[1,3] + r[1,3] <= 0
 mccormick1[1,4]: - u[1,4] + r[1,4] <= 0
 mccormick1[1,5]: - u[1,5] + r[1,5] <= 0
 mccormick1[1,6]: - u[1,6] + r[1,6] <= 0
 mccormick1[1,7]: - u[1,7] + r[1,7] <= 0
 mccormick1[2,0]: - u[2,0] + r[2,0] <= 0
 mccormick1[2,3]: - u[2,3] + r[2,3] <= 0
 mccormick1[2,4]: - u[2,4] + r[2,4] <= 0
 mccormick1[2,5]: - u[2,5] + r[2,5] <= 0
 mccormick1[2,6]: - u[2,6] + r[2,6] <= 0
 mccormick1[2,7]: - u[2,7] + r[2,7] <= 0
 mccormick1[2,8]: - u[2,8] + r[2,8] <= 0
 mccormick1[3,0]: - u[3,0] + r[3,0] <= 0
 mccormick1[3,1]: - u[3,1] + r[3,1] <= 0
 mccormick1[3,2]: - u[3,2] + r[3,2] <= 0
 mccormick1[3,4]: - u[3,4] + r[3,4] <= 0
 mccormick1[3,5]: - u[3,5] + r[3,5] <= 0
 mccormick1[3,6]: - u[3,6] + r[3,6] <= 0
 mccormick1[3,7]: - u[3,7] + r[3,7] <= 0
 mccormick1[3,8]: - u[3,8] + r[3,8] <= 0
 mccormick1[4,0]: - u[4,0] + r[4,0] <= 0
 mccormick1[4,1]: - u[4,1] + r[4,1] <= 0
 mccormick1[4,2]: - u[4,2] + r[4,2] <= 0
 mccormick1[4,3]: - u[4,3] + r[4,3] <= 0
 mccormick1[4,5]: - u[4,5] + r[4,5] <= 0
 mccormick1[4,6]: - u[4,6] + r[4,6] <= 0
 mccormick1[4,7]: - u[4,7] + r[4,7] <= 0
 mccormick1[4,8]: - u[4,8] + r[4,8] <= 0
 mccormick1[5,0]: - u[5,0] + r[5,0] <= 0
 mccormick1[5,1]: - u[5,1] + r[5,1] <= 0
 mccormick1[5,2]: - u[5,2] + r[5,2] <= 0
 mccormick1[5,3]: - u[5,3] + r[5,3] <= 0
 mccormick1[5,4]: - u[5,4] + r[5,4] <= 0
 mccormick1[5,6]: - u[5,6] + r[5,6] <= 0
 mccormick1[5,7]: - u[5,7] + r[5,7] <= 0
 mccormick1[6,0]: - u[6,0] + r[6,0] <= 0
 mccormick1[6,1]: - u[6,1] + r[6,1] <= 0
 mccormick1[6,2]: - u[6,2] + r[6,2] <= 0
 mccormick1[6,3]: - u[6,3] + r[6,3] <= 0
 mccormick1[6,4]: - u[6,4] + r[6,4] <= 0
 mccormick1[6,5]: - u[6,5] + r[6,5] <= 0
 mccormick1[6,7]: - u[6,7] + r[6,7] <= 0
 mccormick1[7,1]: - u[7,1] + r[7,1] <= 0
 mccormick1[7,2]: - u[7,2] + r[7,2] <= 0
 mccormick1[7,3]: - u[7,3] + r[7,3] <= 0
 mccormick1[7,4]: - u[7,4] + r[7,4] <= 0
 mccormick1[7,5]: - u[7,5] + r[7,5] <= 0
 mccormick1[7,6]: - u[7,6] + r[7,6] <= 0
 mccormick1[8,0]: - u[8,0] + r[8,0] <= 0
 mccormick1[8,2]: - u[8,2] + r[8,2] <= 0
 mccormick1[8,3]: - u[8,3] + r[8,3] <= 0
 mccormick1[8,4]: - u[8,4] + r[8,4] <= 0
 mccormick2[0,2]: - y[0,2] + r[0,2] <= 0
 mccormick2[0,3]: - y[0,3] + r[0,3] <= 0
 mccormick2[0,4]: - y[0,4] + r[0,4] <= 0
 mccormick2[0,5]: - y[0,5] + r[0,5] <= 0
 mccormick2[0,6]: - y[0,6] + r[0,6] <= 0
 mccormick2[0,8]: - y[0,8] + r[0,8] <= 0
 mccormick2[1,3]: - y[1,3] + r[1,3] <= 0
 mccormick2[1,4]: - y[1,4] + r[1,4] <= 0
 mccormick2[1,5]: - y[1,5] + r[1,5] <= 0
 mccormick2[1,6]: - y[1,6] + r[1,6] <= 0
 mccormick2[1,7]: - y[1,7] + r[1,7] <= 0
 mccormick2[2,0]: - y[2,0] + r[2,0] <= 0
 mccormick2[2,3]: - y[2,3] + r[2,3] <= 0
 mccormick2[2,4]: - y[2,4] + r[2,4] <= 0
 mccormick2[2,5]: - y[2,5] + r[2,5] <= 0
 mccormick2[2,6]: - y[2,6] + r[2,6] <= 0
 mccormick2[2,7]: - y[2,7] + r[2,7] <= 0
 mccormick2[2,8]: - y[2,8] + r[2,8] <= 0
 mccormick2[3,0]: - y[3,0] + r[3,0] <= 0
 mccormick2[3,1]: - y[3,1] + r[3,1] <= 0
 mccormick2[3,2]: - y[3,2] + r[3,2] <= 0
 mccormick2[3,4]: - y[3,4] + r[3,4] <= 0
 mccormick2[3,5]: - y[3,5] + r[3,5] <= 0
 mccormick2[3,6]: - y[3,6] + r[3,6] <= 0
 mccormick2[3,7]: - y[3,7] + r[3,7] <= 0
 mccormick2[3,8]: - y[3,8] + r[3,8] <= 0
 mccormick2[4,0]: - y[4,0] + r[4,0] <= 0
 mccormick2[4,1]: - y[4,1] + r[4,1] <= 0
 mccormick2[4,2]: - y[4,2] + r[4,2] <= 0
 mccormick2[4,3]: - y[4,3] + r[4,3] <= 0
 mccormick2[4,5]: - y[4,5] + r[4,5] <= 0
 mccormick2[4,6]: - y[4,6] + r[4,6] <= 0
 mccormick2[4,7]: - y[4,7] + r[4,7] <= 0
 mccormick2[4,8]: - y[4,8] + r[4,8] <= 0
 mccormick2[5,0]: - y[5,0] + r[5,0] <= 0
 mccormick2[5,1]: - y[5,1] + r[5,1] <= 0
 mccormick2[5,2]: - y[5,2] + r[5,2] <= 0
 mccormick2[5,3]: - y[5,3] + r[5,3] <= 0
 mccormick2[5,4]: - y[5,4] + r[5,4] <= 0
 mccormick2[5,6]: - y[5,6] + r[5,6] <= 0
 mccormick2[5,7]: - y[5,7] + r[5,7] <= 0
 mccormick2[6,0]: - y[6,0] + r[6,0] <= 0
 mccormick2[6,1]: - y[6,1] + r[6,1] <= 0
 mccormick2[6,2]: - y[6,2] + r[6,2] <= 0
 mccormick2[6,3]: - y[6,3] + r[6,3] <= 0
 mccormick2[6,4]: - y[6,4] + r[6,4] <= 0
 mccormick2[6,5]: - y[6,5] + r[6,5] <= 0
 mccormick2[6,7]: - y[6,7] + r[6,7] <= 0
 mccormick2[7,1]: - y[7,1] + r[7,1] <= 0
 mccormick2[7,2]: - y[7,2] + r[7,2] <= 0
 mccormick2[7,3]: - y[7,3] + r[7,3] <= 0
 mccormick2[7,4]: - y[7,4] + r[7,4] <= 0
 mccormick2[7,5]: - y[7,5] + r[7,5] <= 0
 mccormick2[7,6]: - y[7,6] + r[7,6] <= 0
 mccormick2[8,0]: - y[8,0] + r[8,0] <= 0
 mccormick2[8,2]: - y[8,2] + r[8,2] <= 0
 mccormick2[8,3]: - y[8,3] + r[8,3] <= 0
 mccormick2[8,4]: - y[8,4] + r[8,4] <= 0
 mccormick3[0,2]: - y[0,2] - u[0,2] + r[0,2] >= -1
 mccormick3[0,3]: - y[0,3] - u[0,3] + r[0,3] >= -1
 mccormick3[0,4]: - y[0,4] - u[0,4] + r[0,4] >= -1
 mccormick3[0,5]: - y[0,5] - u[0,5] + r[0,5] >= -1
 mccormick3[0,6]: - y[0,6] - u[0,6] + r[0,6] >= -1
 mccormick3[0,8]: - y[0,8] - u[0,8] + r[0,8] >= -1
 mccormick3[1,3]: - y[1,3] - u[1,3] + r[1,3] >= -1
 mccormick3[1,4]: - y[1,4] - u[1,4] + r[1,4] >= -1
 mccormick3[1,5]: - y[1,5] - u[1,5] + r[1,5] >= -1
 mccormick3[1,6]: - y[1,6] - u[1,6] + r[1,6] >= -1
 mccormick3[1,7]: - y[1,7] - u[1,7] + r[1,7] >= -1
 mccormick3[2,0]: - y[2,0] - u[2,0] + r[2,0] >= -1
 mccormick3[2,3]: - y[2,3] - u[2,3] + r[2,3] >= -1
 mccormick3[2,4]: - y[2,4] - u[2,4] + r[2,4] >= -1
 mccormick3[2,5]: - y[2,5] - u[2,5] + r[2,5] >= -1
 mccormick3[2,6]: - y[2,6] - u[2,6] + r[2,6] >= -1
 mccormick3[2,7]: - y[2,7] - u[2,7] + r[2,7] >= -1
 mccormick3[2,8]: - y[2,8] - u[2,8] + r[2,8] >= -1
 mccormick3[3,0]: - y[3,0] - u[3,0] + r[3,0] >= -1
 mccormick3[3,1]: - y[3,1] - u[3,1] + r[3,1] >= -1
 mccormick3[3,2]: - y[3,2] - u[3,2] + r[3,2] >= -1
 mccormick3[3,4]: - y[3,4] - u[3,4] + r[3,4] >= -1
 mccormick3[3,5]: - y[3,5] - u[3,5] + r[3,5] >= -1
 mccormick3[3,6]: - y[3,6] - u[3,6] + r[3,6] >= -1
 mccormick3[3,7]: - y[3,7] - u[3,7] + r[3,7] >= -1
 mccormick3[3,8]: - y[3,8] - u[3,8] + r[3,8] >= -1
 mccormick3[4,0]: - y[4,0] - u[4,0] + r[4,0] >= -1
 mccormick3[4,1]: - y[4,1] - u[4,1] + r[4,1] >= -1
 mccormick3[4,2]: - y[4,2] - u[4,2] + r[4,2] >= -1
 mccormick3[4,3]: - y[4,3] - u[4,3] + r[4,3] >= -1
 mccormick3[4,5]: - y[4,5] - u[4,5] + r[4,5] >= -1
 mccormick3[4,6]: - y[4,6] - u[4,6] + r[4,6] >= -1
 mccormick3[4,7]: - y[4,7] - u[4,7] + r[4,7] >= -1
 mccormick3[4,8]: - y[4,8] - u[4,8] + r[4,8] >= -1
 mccormick3[5,0]: - y[5,0] - u[5,0] + r[5,0] >= -1
 mccormick3[5,1]: - y[5,1] - u[5,1] + r[5,1] >= -1
 mccormick3[5,2]: - y[5,2] - u[5,2] + r[5,2] >= -1
 mccormick3[5,3]: - y[5,3] - u[5,3] + r[5,3] >= -1
 mccormick3[5,4]: - y[5,4] - u[5,4] + r[5,4] >= -1
 mccormick3[5,6]: - y[5,6] - u[5,6] + r[5,6] >= -1
 mccormick3[5,7]: - y[5,7] - u[5,7] + r[5,7] >= -1
 mccormick3[6,0]: - y[6,0] - u[6,0] + r[6,0] >= -1
 mccormick3[6,1]: - y[6,1] - u[6,1] + r[6,1] >= -1
 mccormick3[6,2]: - y[6,2] - u[6,2] + r[6,2] >= -1
 mccormick3[6,3]: - y[6,3] - u[6,3] + r[6,3] >= -1
 mccormick3[6,4]: - y[6,4] - u[6,4] + r[6,4] >= -1
 mccormick3[6,5]: - y[6,5] - u[6,5] + r[6,5] >= -1
 mccormick3[6,7]: - y[6,7] - u[6,7] + r[6,7] >= -1
 mccormick3[7,1]: - y[7,1] - u[7,1] + r[7,1] >= -1
 mccormick3[7,2]: - y[7,2] - u[7,2] + r[7,2] >= -1
 mccormick3[7,3]: - y[7,3] - u[7,3] + r[7,3] >= -1
 mccormick3[7,4]: - y[7,4] - u[7,4] + r[7,4] >= -1
 mccormick3[7,5]: - y[7,5] - u[7,5] + r[7,5] >= -1
 mccormick3[7,6]: - y[7,6] - u[7,6] + r[7,6] >= -1
 mccormick3[8,0]: - y[8,0] - u[8,0] + r[8,0] >= -1
 mccormick3[8,2]: - y[8,2] - u[8,2] + r[8,2] >= -1
 mccormick3[8,3]: - y[8,3] - u[8,3] + r[8,3] >= -1
 mccormick3[8,4]: - y[8,4] - u[8,4] + r[8,4] >= -1
Bounds
Binaries
 y[0,2] y[0,3] y[0,4] y[0,5] y[0,6] y[0,8] y[1,3] y[1,4] y[1,5] y[1,6]
 y[1,7] y[2,0] y[2,3] y[2,4] y[2,5] y[2,6] y[2,7] y[2,8] y[3,0] y[3,1]
 y[3,2] y[3,4] y[3,5] y[3,6] y[3,7] y[3,8] y[4,0] y[4,1] y[4,2] y[4,3]
 y[4,5] y[4,6] y[4,7] y[4,8] y[5,0] y[5,1] y[5,2] y[5,3] y[5,4] y[5,6]
 y[5,7] y[6,0] y[6,1] y[6,2] y[6,3] y[6,4] y[6,5] y[6,7] y[7,1] y[7,2]
 y[7,3] y[7,4] y[7,5] y[7,6] y[8,0] y[8,2] y[8,3] y[8,4] x[0,2] x[0,3]
 x[0,4] x[0,5] x[0,6] x[0,8] x[1,3] x[1,4] x[1,5] x[1,6] x[1,7] x[2,0]
 x[2,3] x[2,4] x[2,5] x[2,6] x[2,7] x[2,8] x[3,0] x[3,1] x[3,2] x[3,4]
 x[3,5] x[3,6] x[3,7] x[3,8] x[4,0] x[4,1] x[4,2] x[4,3] x[4,5] x[4,6]
 x[4,7] x[4,8] x[5,0] x[5,1] x[5,2] x[5,3] x[5,4] x[5,6] x[5,7] x[6,0]
 x[6,1] x[6,2] x[6,3] x[6,4] x[6,5] x[6,7] x[7,1] x[7,2] x[7,3] x[7,4]
 x[7,5] x[7,6] x[8,0] x[8,2] x[8,3] x[8,4] u[0,2] u[0,3] u[0,4] u[0,5]
 u[0,6] u[0,8] u[1,3] u[1,4] u[1,5] u[1,6] u[1,7] u[2,0] u[2,3] u[2,4]
 u[2,5] u[2,6] u[2,7] u[2,8] u[3,0] u[3,1] u[3,2] u[3,4] u[3,5] u[3,6]
 u[3,7] u[3,8] u[4,0] u[4,1] u[4,2] u[4,3] u[4,5] u[4,6] u[4,7] u[4,8]
 u[5,0] u[5,1] u[5,2] u[5,3] u[5,4] u[5,6] u[5,7] u[6,0] u[6,1] u[6,2]
 u[6,3] u[6,4] u[6,5] u[6,7] u[7,1] u[7,2] u[7,3] u[7,4] u[7,5] u[7,6]
 u[8,0] u[8,2] u[8,3] u[8,4] r[0,2] r[0,3] r[0,4] r[0,5] r[0,6] r[0,8]
 r[1,3] r[1,4] r[1,5] r[1,6] r[1,7] r[2,0] r[2,3] r[2,4] r[2,5] r[2,6]
 r[2,7] r[2,8] r[3,0] r[3,1] r[3,2] r[3,4] r[3,5] r[3,6] r[3,7] r[3,8]
 r[4,0] r[4,1] r[4,2] r[4,3] r[4,5] r[4,6] r[4,7] r[4,8] r[5,0] r[5,1]
 r[5,2] r[5,3] r[5,4] r[5,6] r[5,7] r[6,0] r[6,1] r[6,2] r[6,3] r[6,4]
 r[6,5] r[6,7] r[7,1] r[7,2] r[7,3] r[7,4] r[7,5] r[7,6] r[8,0] r[8,2]
 r[8,3] r[8,4]
End
