instances/shortest_path/discrete_knapsack_uncertainty/nohadani_9_20.kp
20255
290

[3.2132801421525765 0.2724613147251731 3.044717290544681 3.9675578659928057 4.602048238757212 2.868161843466926 3.7960677570814427 2.378345841860604 2.862296928411075 0.6164269925670285 1.549307153893239 0.41922634484693133 2.39664358465076 0.7633805796760251 0.2537130636363433 2.232038624279012 0.09782263890901532 0.5160584085571429 1.4768651249771385 0.9506323189272703 3.493617077306959 3.974547416541725 4.2372034037047035 2.9004215397743227 0.5851004474915239 3.5646958609151818 4.988176750485356 3.867815647116676 3.6451468568198644 4.951007483382466 1.3871455352644602 0.48251382668249576 4.214391349124896 0.8605725947062781 4.435767596395661 4.017275460385295 3.819987859781771 4.67020792559903 3.823653205692681 0.3389463644865859 3.711285113205581 1.2552171930657559 3.2703755876364737 2.3474927060578477 3.8532771177945513 2.3515632175787338 2.3381997980457507 0.7758116382868208 3.8912475937705033 4.022365671584938 1.5616783061858723 2.130020984096787 3.7973042871342315 4.025423598656276 4.681222470965237 2.7036434148036936 0.08687553151629168 2.1202387864672056]

[80 45 79 40 17 62 22 68 34 43 68 52 89 93 69 53 86 73 18 63 86 60 77 47 25 37 39 56 62 76 42 48 8 26 49 6 53 41 97 63 52 82 83 70 72 11 6 78 80 65 95 73 58 13 21 60 42 83]
